generated by phonopy
   1.0
     5.7409999999999997    0.0000000000000000    0.0000000000000000
     0.0000000000000000    5.8769999999999998    0.0000000000000000
     0.0000000000000000    0.0000000000000000    7.7050000000000001
Pd Se
   4    8
Direct
  0.0000000000000000  0.0000000000000000  0.0000000000000000
  0.5000000000000000  0.0000000000000000  0.5000000000000000
  0.0000000000000000  0.5000000000000000  0.5000000000000000
  0.5000000000000000  0.5000000000000000  0.0000000000000000
  0.1069333608201978  0.1154989540421862  0.3971674211945991
  0.8930666391798022  0.8845010459578138  0.6028325788054010
  0.3930666391798022  0.8845010459578138  0.8971674211945990
  0.6069333608201978  0.1154989540421862  0.1028325788054009
  0.8930666391798022  0.6154989540421862  0.1028325788054009
  0.1069333608201978  0.3845010459578138  0.8971674211945990
  0.6069333608201978  0.3845010459578138  0.6028325788054010
  0.3930666391798022  0.6154989540421862  0.3971674211945991
