generated by phonopy
   1.0
     5.3980054871666177    0.0000000000000000    0.0000000000000000
     0.0000000000000000    4.5885103849004407    0.0000000000000000
    -2.3613810169551512    0.0000000000000000    4.8927558935792277
V O
   4    8
Direct
  0.2337797960912273  0.4786471131512895  0.7070912588853757
  0.2337797960912273  0.0213528868487105  0.2070912588853757
  0.7662202039087727  0.9786471131512895  0.7929087411146243
  0.7662202039087727  0.5213528868487105  0.2929087411146243
  0.1088719567570400  0.7175875828177489  0.3932623164458824
  0.1088719567570400  0.7824124171822511  0.8932623164458824
  0.8911280432429600  0.2175875828177489  0.1067376835541176
  0.8911280432429600  0.2824124171822511  0.6067376835541176
  0.3997944482645970  0.2001484952165231  0.5980434846241489
  0.3997944482645970  0.2998515047834769  0.0980434846241489
  0.6002055517354030  0.7001484952165231  0.9019565153758511
  0.6002055517354030  0.7998515047834769  0.4019565153758511
