M1-VO2-34033.cif                        
   1.00000000000000     
     5.7584840568014242    0.0000000000000000   -0.0031264684770812
     0.0000000000000000    4.5885103849004407    0.0000000000000000
    -2.9094616381615008    0.0000000000000000    4.5880511677025799
   V    O 
     4     8
Direct
  0.2337797960912273  0.5213528868487105  0.5266885372058515
  0.2337797960912273  0.9786471131512895  0.0266885372058512
  0.7662202039087728  0.0213528868487106  0.9733114627941485
  0.7662202039087728  0.4786471131512893  0.4733114627941489
  0.1088719567570400  0.2824124171822511  0.7156096403111575
  0.1088719567570400  0.2175875828177490  0.2156096403111575
  0.8911280432429601  0.7824124171822511  0.7843903596888425
  0.8911280432429601  0.7175875828177489  0.2843903596888426
  0.3997944482645969  0.7998515047834769  0.8017509636404480
  0.3997944482645969  0.7001484952165231  0.3017509636404478
  0.6002055517354032  0.2998515047834769  0.6982490363595520
  0.6002055517354032  0.2001484952165231  0.1982490363595522
 
  0.00000000E+00  0.00000000E+00  0.00000000E+00
  0.00000000E+00  0.00000000E+00  0.00000000E+00
  0.00000000E+00  0.00000000E+00  0.00000000E+00
  0.00000000E+00  0.00000000E+00  0.00000000E+00
  0.00000000E+00  0.00000000E+00  0.00000000E+00
  0.00000000E+00  0.00000000E+00  0.00000000E+00
  0.00000000E+00  0.00000000E+00  0.00000000E+00
  0.00000000E+00  0.00000000E+00  0.00000000E+00
  0.00000000E+00  0.00000000E+00  0.00000000E+00
  0.00000000E+00  0.00000000E+00  0.00000000E+00
  0.00000000E+00  0.00000000E+00  0.00000000E+00
  0.00000000E+00  0.00000000E+00  0.00000000E+00
