generated by phonopy
   1.0
     5.3980054871666168    0.0000000000000000    0.0000000000000000
     0.0000000000000000    4.5885103849004398    0.0000000000000000
    -2.3613810169551512    0.0000000000000000    4.8927558935792268
V O
   4    8
Direct
  0.2337797960912275  0.4786471131512896  0.7070912588853758
  0.2337797960912274  0.0213528868487105  0.2070912588853758
  0.7662202039087730  0.9786471131512897  0.7929087411146245
  0.7662202039087729  0.5213528868487106  0.2929087411146243
  0.1088719567570400  0.7175875828177490  0.3932623164458826
  0.1088719567570401  0.7824124171822513  0.8932623164458826
  0.8911280432429602  0.2175875828177490  0.1067376835541176
  0.8911280432429604  0.2824124171822511  0.6067376835541177
  0.3997944482645971  0.2001484952165232  0.5980434846241490
  0.3997944482645971  0.2998515047834769  0.0980434846241489
  0.6002055517354032  0.7001484952165232  0.9019565153758513
  0.6002055517354031  0.7998515047834771  0.4019565153758512
