generated by phonopy
   1.0
     3.1900000571960963    0.0000000000000000    0.0000000000000000
    -1.5950000285980481    2.7626210876056323    0.0000000000000000
     0.0000000000000000    0.0000000000000000    5.1900000571999998
Ga N
   2    2
Direct
  0.3333333333333333  0.6666666666666666  0.0000000000000000
  0.6666666666666669  0.3333333333333333  0.5000000000000000
  0.3333333333333333  0.6666666666666666  0.3765000040000000
  0.6666666666666669  0.3333333333333333  0.8765000039999999
